\ LP format - for model browsing. Use MPS format to capture full model detail.
Minimize
  1000 y_{1,1,2} + 1000 y_{2,1,2} + 1000 y_{3,1,2} + 1000 y_{4,1,2}
   + 1000 y_{5,1,2} + 1000 y_{1,2,12} + 1000 y_{2,2,12} + 1000 y_{3,2,12}
   + 1000 y_{4,2,12} + 1000 y_{5,2,12} + 1000 y_{1,1,3} + 1000 y_{2,1,3}
   + 1000 y_{3,1,3} + 1000 y_{4,1,3} + 1000 y_{5,1,3} + 1000 y_{1,1,4}
   + 1000 y_{2,1,4} + 1000 y_{3,1,4} + 1000 y_{4,1,4} + 1000 y_{5,1,4}
   + 1000 y_{1,4,12} + 1000 y_{2,4,12} + 1000 y_{3,4,12} + 1000 y_{4,4,12}
   + 1000 y_{5,4,12} + 986 y_{1,1,5} + 986 y_{2,1,5} + 986 y_{3,1,5}
   + 986 y_{4,1,5} + 986 y_{5,1,5} + 986 y_{1,5,12} + 986 y_{2,5,12}
   + 986 y_{3,5,12} + 986 y_{4,5,12} + 986 y_{5,5,12} + 1000 y_{1,6,12}
   + 1000 y_{2,6,12} + 1000 y_{3,6,12} + 1000 y_{4,6,12} + 1000 y_{5,6,12}
   + 922 y_{1,1,7} + 922 y_{2,1,7} + 922 y_{3,1,7} + 922 y_{4,1,7}
   + 922 y_{5,1,7} + 922 y_{1,7,12} + 922 y_{2,7,12} + 922 y_{3,7,12}
   + 922 y_{4,7,12} + 922 y_{5,7,12} + 999 y_{1,1,8} + 999 y_{2,1,8}
   + 999 y_{3,1,8} + 999 y_{4,1,8} + 999 y_{5,1,8} + 999 y_{1,8,12}
   + 999 y_{2,8,12} + 999 y_{3,8,12} + 999 y_{4,8,12} + 999 y_{5,8,12}
   + 970 y_{1,1,9} + 970 y_{2,1,9} + 970 y_{3,1,9} + 970 y_{4,1,9}
   + 970 y_{5,1,9} + 970 y_{1,9,12} + 970 y_{2,9,12} + 970 y_{3,9,12}
   + 970 y_{4,9,12} + 970 y_{5,9,12} + 1000 y_{1,1,10} + 1000 y_{2,1,10}
   + 1000 y_{3,1,10} + 1000 y_{4,1,10} + 1000 y_{5,1,10} + 1000 y_{1,10,12}
   + 1000 y_{2,10,12} + 1000 y_{3,10,12} + 1000 y_{4,10,12}
   + 1000 y_{5,10,12} + 1000 y_{1,1,11} + 1000 y_{2,1,11} + 1000 y_{3,1,11}
   + 1000 y_{4,1,11} + 1000 y_{5,1,11}
Subject To
 flow_reservation_at_node_1_route_1: x_{1,1,2} + x_{1,1,3} + x_{1,1,4}
   + x_{1,1,5} + x_{1,1,7} + x_{1,1,8} + x_{1,1,9} + x_{1,1,10}
   + x_{1,1,11} = 1
 flow_reservation_at_node_1_route_2: x_{2,1,2} + x_{2,1,3} + x_{2,1,4}
   + x_{2,1,5} + x_{2,1,7} + x_{2,1,8} + x_{2,1,9} + x_{2,1,10}
   + x_{2,1,11} = 1
 flow_reservation_at_node_1_route_3: x_{3,1,2} + x_{3,1,3} + x_{3,1,4}
   + x_{3,1,5} + x_{3,1,7} + x_{3,1,8} + x_{3,1,9} + x_{3,1,10}
   + x_{3,1,11} = 1
 flow_reservation_at_node_1_route_4: x_{4,1,2} + x_{4,1,3} + x_{4,1,4}
   + x_{4,1,5} + x_{4,1,7} + x_{4,1,8} + x_{4,1,9} + x_{4,1,10}
   + x_{4,1,11} = 1
 flow_reservation_at_node_1_route_5: x_{5,1,2} + x_{5,1,3} + x_{5,1,4}
   + x_{5,1,5} + x_{5,1,7} + x_{5,1,8} + x_{5,1,9} + x_{5,1,10}
   + x_{5,1,11} = 1
 flow_reservation_at_node_2_route_1: - x_{1,1,2} + x_{1,2,12} = 0
 flow_reservation_at_node_2_route_2: - x_{2,1,2} + x_{2,2,12} = 0
 flow_reservation_at_node_2_route_3: - x_{3,1,2} + x_{3,2,12} = 0
 flow_reservation_at_node_2_route_4: - x_{4,1,2} + x_{4,2,12} = 0
 flow_reservation_at_node_2_route_5: - x_{5,1,2} + x_{5,2,12} = 0
 flow_reservation_at_node_3_route_1: - x_{1,1,3} = 0
 flow_reservation_at_node_3_route_2: - x_{2,1,3} = 0
 flow_reservation_at_node_3_route_3: - x_{3,1,3} = 0
 flow_reservation_at_node_3_route_4: - x_{4,1,3} = 0
 flow_reservation_at_node_3_route_5: - x_{5,1,3} = 0
 flow_reservation_at_node_4_route_1: - x_{1,1,4} + x_{1,4,12} = 0
 flow_reservation_at_node_4_route_2: - x_{2,1,4} + x_{2,4,12} = 0
 flow_reservation_at_node_4_route_3: - x_{3,1,4} + x_{3,4,12} = 0
 flow_reservation_at_node_4_route_4: - x_{4,1,4} + x_{4,4,12} = 0
 flow_reservation_at_node_4_route_5: - x_{5,1,4} + x_{5,4,12} = 0
 flow_reservation_at_node_5_route_1: - x_{1,1,5} + x_{1,5,12} = 0
 flow_reservation_at_node_5_route_2: - x_{2,1,5} + x_{2,5,12} = 0
 flow_reservation_at_node_5_route_3: - x_{3,1,5} + x_{3,5,12} = 0
 flow_reservation_at_node_5_route_4: - x_{4,1,5} + x_{4,5,12} = 0
 flow_reservation_at_node_5_route_5: - x_{5,1,5} + x_{5,5,12} = 0
 flow_reservation_at_node_6_route_1: x_{1,6,12} = 0
 flow_reservation_at_node_6_route_2: x_{2,6,12} = 0
 flow_reservation_at_node_6_route_3: x_{3,6,12} = 0
 flow_reservation_at_node_6_route_4: x_{4,6,12} = 0
 flow_reservation_at_node_6_route_5: x_{5,6,12} = 0
 flow_reservation_at_node_7_route_1: - x_{1,1,7} + x_{1,7,12} = 0
 flow_reservation_at_node_7_route_2: - x_{2,1,7} + x_{2,7,12} = 0
 flow_reservation_at_node_7_route_3: - x_{3,1,7} + x_{3,7,12} = 0
 flow_reservation_at_node_7_route_4: - x_{4,1,7} + x_{4,7,12} = 0
 flow_reservation_at_node_7_route_5: - x_{5,1,7} + x_{5,7,12} = 0
 flow_reservation_at_node_8_route_1: - x_{1,1,8} + x_{1,8,12} = 0
 flow_reservation_at_node_8_route_2: - x_{2,1,8} + x_{2,8,12} = 0
 flow_reservation_at_node_8_route_3: - x_{3,1,8} + x_{3,8,12} = 0
 flow_reservation_at_node_8_route_4: - x_{4,1,8} + x_{4,8,12} = 0
 flow_reservation_at_node_8_route_5: - x_{5,1,8} + x_{5,8,12} = 0
 flow_reservation_at_node_9_route_1: - x_{1,1,9} + x_{1,9,12} = 0
 flow_reservation_at_node_9_route_2: - x_{2,1,9} + x_{2,9,12} = 0
 flow_reservation_at_node_9_route_3: - x_{3,1,9} + x_{3,9,12} = 0
 flow_reservation_at_node_9_route_4: - x_{4,1,9} + x_{4,9,12} = 0
 flow_reservation_at_node_9_route_5: - x_{5,1,9} + x_{5,9,12} = 0
 flow_reservation_at_node_10_route_1: - x_{1,1,10} + x_{1,10,12} = 0
 flow_reservation_at_node_10_route_2: - x_{2,1,10} + x_{2,10,12} = 0
 flow_reservation_at_node_10_route_3: - x_{3,1,10} + x_{3,10,12} = 0
 flow_reservation_at_node_10_route_4: - x_{4,1,10} + x_{4,10,12} = 0
 flow_reservation_at_node_10_route_5: - x_{5,1,10} + x_{5,10,12} = 0
 flow_reservation_at_node_11_route_1: - x_{1,1,11} = 0
 flow_reservation_at_node_11_route_2: - x_{2,1,11} = 0
 flow_reservation_at_node_11_route_3: - x_{3,1,11} = 0
 flow_reservation_at_node_11_route_4: - x_{4,1,11} = 0
 flow_reservation_at_node_11_route_5: - x_{5,1,11} = 0
 capacity_requirement_at_(1,_2): y_{1,1,2} + y_{2,1,2} + y_{3,1,2}
   + y_{4,1,2} + y_{5,1,2} <= 8
 capacity_requirement_at_(2,_12): y_{1,2,12} + y_{2,2,12} + y_{3,2,12}
   + y_{4,2,12} + y_{5,2,12} <= 8
 capacity_requirement_at_(1,_3): y_{1,1,3} + y_{2,1,3} + y_{3,1,3}
   + y_{4,1,3} + y_{5,1,3} <= 8
 capacity_requirement_at_(1,_4): y_{1,1,4} + y_{2,1,4} + y_{3,1,4}
   + y_{4,1,4} + y_{5,1,4} <= 8
 capacity_requirement_at_(4,_12): y_{1,4,12} + y_{2,4,12} + y_{3,4,12}
   + y_{4,4,12} + y_{5,4,12} <= 8
 capacity_requirement_at_(1,_5): y_{1,1,5} + y_{2,1,5} + y_{3,1,5}
   + y_{4,1,5} + y_{5,1,5} <= 8
 capacity_requirement_at_(5,_12): y_{1,5,12} + y_{2,5,12} + y_{3,5,12}
   + y_{4,5,12} + y_{5,5,12} <= 8
 capacity_requirement_at_(6,_12): y_{1,6,12} + y_{2,6,12} + y_{3,6,12}
   + y_{4,6,12} + y_{5,6,12} <= 8
 capacity_requirement_at_(1,_7): y_{1,1,7} + y_{2,1,7} + y_{3,1,7}
   + y_{4,1,7} + y_{5,1,7} <= 8
 capacity_requirement_at_(7,_12): y_{1,7,12} + y_{2,7,12} + y_{3,7,12}
   + y_{4,7,12} + y_{5,7,12} <= 8
 capacity_requirement_at_(1,_8): y_{1,1,8} + y_{2,1,8} + y_{3,1,8}
   + y_{4,1,8} + y_{5,1,8} <= 8
 capacity_requirement_at_(8,_12): y_{1,8,12} + y_{2,8,12} + y_{3,8,12}
   + y_{4,8,12} + y_{5,8,12} <= 8
 capacity_requirement_at_(1,_9): y_{1,1,9} + y_{2,1,9} + y_{3,1,9}
   + y_{4,1,9} + y_{5,1,9} <= 8
 capacity_requirement_at_(9,_12): y_{1,9,12} + y_{2,9,12} + y_{3,9,12}
   + y_{4,9,12} + y_{5,9,12} <= 8
 capacity_requirement_at_(1,_10): y_{1,1,10} + y_{2,1,10} + y_{3,1,10}
   + y_{4,1,10} + y_{5,1,10} <= 8
 capacity_requirement_at_(10,_12): y_{1,10,12} + y_{2,10,12} + y_{3,10,12}
   + y_{4,10,12} + y_{5,10,12} <= 8
 capacity_requirement_at_(1,_11): y_{1,1,11} + y_{2,1,11} + y_{3,1,11}
   + y_{4,1,11} + y_{5,1,11} <= 8
 required_capacity_requirement: b_{1} + b_{2} + b_{3} + b_{4} + b_{5} >= 8
 expected_capacity_requirement: - 0.00241707416065295 y_{1,1,2}
   - 0.00241707416065295 y_{2,1,2} - 0.00241707416065295 y_{3,1,2}
   - 0.00241707416065295 y_{4,1,2} - 0.00241707416065295 y_{5,1,2}
   - 0.9444193411136594 y_{1,2,12} - 0.9444193411136594 y_{2,2,12}
   - 0.9444193411136594 y_{3,2,12} - 0.9444193411136594 y_{4,2,12}
   - 0.9444193411136594 y_{5,2,12} - 0.2211369103737204 y_{1,1,3}
   - 0.2211369103737204 y_{2,1,3} - 0.2211369103737204 y_{3,1,3}
   - 0.2211369103737204 y_{4,1,3} - 0.2211369103737204 y_{5,1,3}
   - 0.0284086648319002 y_{1,1,4} - 0.0284086648319002 y_{2,1,4}
   - 0.0284086648319002 y_{3,1,4} - 0.0284086648319002 y_{4,1,4}
   - 0.0284086648319002 y_{5,1,4} - 0.4894772100681456 y_{1,4,12}
   - 0.4894772100681456 y_{2,4,12} - 0.4894772100681456 y_{3,4,12}
   - 0.4894772100681456 y_{4,4,12} - 0.4894772100681456 y_{5,4,12}
   - 0.00987095909588809 y_{1,1,5} - 0.00987095909588809 y_{2,1,5}
   - 0.00987095909588809 y_{3,1,5} - 0.00987095909588809 y_{4,1,5}
   - 0.00987095909588809 y_{5,1,5} - 0.00987095909588809 y_{1,5,12}
   - 0.00987095909588809 y_{2,5,12} - 0.00987095909588809 y_{3,5,12}
   - 0.00987095909588809 y_{4,5,12} - 0.00987095909588809 y_{5,5,12}
   - 0.0652909737514404 y_{1,6,12} - 0.0652909737514404 y_{2,6,12}
   - 0.0652909737514404 y_{3,6,12} - 0.0652909737514404 y_{4,6,12}
   - 0.0652909737514404 y_{5,6,12} - 0.00987095909588809 y_{1,1,7}
   - 0.00987095909588809 y_{2,1,7} - 0.00987095909588809 y_{3,1,7}
   - 0.00987095909588809 y_{4,1,7} - 0.00987095909588809 y_{5,1,7}
   - 0.00987095909588809 y_{1,7,12} - 0.00987095909588809 y_{2,7,12}
   - 0.00987095909588809 y_{3,7,12} - 0.00987095909588809 y_{4,7,12}
   - 0.00987095909588809 y_{5,7,12} - 0.0284086648319002 y_{1,1,8}
   - 0.0284086648319002 y_{2,1,8} - 0.0284086648319002 y_{3,1,8}
   - 0.0284086648319002 y_{4,1,8} - 0.0284086648319002 y_{5,1,8}
   - 0.00987095909588809 y_{1,8,12} - 0.00987095909588809 y_{2,8,12}
   - 0.00987095909588809 y_{3,8,12} - 0.00987095909588809 y_{4,8,12}
   - 0.00987095909588809 y_{5,8,12} - 0.1278728051004215 y_{1,1,9}
   - 0.1278728051004215 y_{2,1,9} - 0.1278728051004215 y_{3,1,9}
   - 0.1278728051004215 y_{4,1,9} - 0.1278728051004215 y_{5,1,9}
   - 0.2211369103737204 y_{1,9,12} - 0.2211369103737204 y_{2,9,12}
   - 0.2211369103737204 y_{3,9,12} - 0.2211369103737204 y_{4,9,12}
   - 0.2211369103737204 y_{5,9,12} - 0.00241707416065295 y_{1,1,10}
   - 0.00241707416065295 y_{2,1,10} - 0.00241707416065295 y_{3,1,10}
   - 0.00241707416065295 y_{4,1,10} - 0.00241707416065295 y_{5,1,10}
   - 0.6394122716536066 y_{1,10,12} - 0.6394122716536066 y_{2,10,12}
   - 0.6394122716536066 y_{3,10,12} - 0.6394122716536066 y_{4,10,12}
   - 0.6394122716536066 y_{5,10,12} - 0.0284086648319002 y_{1,1,11}
   - 0.0284086648319002 y_{2,1,11} - 0.0284086648319002 y_{3,1,11}
   - 0.0284086648319002 y_{4,1,11} - 0.0284086648319002 y_{5,1,11} + b_{1}
   + b_{2} + b_{3} + b_{4} + b_{5} >= 8
 st1_at_(1,_2)_route_1: - 1000 x_{1,1,2} + y_{1,1,2} - b_{1} >= -1000
 st2_at_(1,_2)_route_1: - 1000 x_{1,1,2} + y_{1,1,2} <= 0
 st3_at_(1,_2)_route_1: y_{1,1,2} >= 0
 st1_at_(2,_12)_route_1: - 1000 x_{1,2,12} + y_{1,2,12} - b_{1} >= -1000
 st2_at_(2,_12)_route_1: - 1000 x_{1,2,12} + y_{1,2,12} <= 0
 st3_at_(2,_12)_route_1: y_{1,2,12} >= 0
 st1_at_(1,_3)_route_1: - 1000 x_{1,1,3} + y_{1,1,3} - b_{1} >= -1000
 st2_at_(1,_3)_route_1: - 1000 x_{1,1,3} + y_{1,1,3} <= 0
 st3_at_(1,_3)_route_1: y_{1,1,3} >= 0
 st1_at_(1,_4)_route_1: - 1000 x_{1,1,4} + y_{1,1,4} - b_{1} >= -1000
 st2_at_(1,_4)_route_1: - 1000 x_{1,1,4} + y_{1,1,4} <= 0
 st3_at_(1,_4)_route_1: y_{1,1,4} >= 0
 st1_at_(4,_12)_route_1: - 1000 x_{1,4,12} + y_{1,4,12} - b_{1} >= -1000
 st2_at_(4,_12)_route_1: - 1000 x_{1,4,12} + y_{1,4,12} <= 0
 st3_at_(4,_12)_route_1: y_{1,4,12} >= 0
 st1_at_(1,_5)_route_1: - 1000 x_{1,1,5} + y_{1,1,5} - b_{1} >= -1000
 st2_at_(1,_5)_route_1: - 986 x_{1,1,5} + y_{1,1,5} <= 0
 st3_at_(1,_5)_route_1: y_{1,1,5} >= 0
 st1_at_(5,_12)_route_1: - 1000 x_{1,5,12} + y_{1,5,12} - b_{1} >= -1000
 st2_at_(5,_12)_route_1: - 986 x_{1,5,12} + y_{1,5,12} <= 0
 st3_at_(5,_12)_route_1: y_{1,5,12} >= 0
 st1_at_(6,_12)_route_1: - 1000 x_{1,6,12} + y_{1,6,12} - b_{1} >= -1000
 st2_at_(6,_12)_route_1: - 1000 x_{1,6,12} + y_{1,6,12} <= 0
 st3_at_(6,_12)_route_1: y_{1,6,12} >= 0
 st1_at_(1,_7)_route_1: - 1000 x_{1,1,7} + y_{1,1,7} - b_{1} >= -1000
 st2_at_(1,_7)_route_1: - 922 x_{1,1,7} + y_{1,1,7} <= 0
 st3_at_(1,_7)_route_1: y_{1,1,7} >= 0
 st1_at_(7,_12)_route_1: - 1000 x_{1,7,12} + y_{1,7,12} - b_{1} >= -1000
 st2_at_(7,_12)_route_1: - 922 x_{1,7,12} + y_{1,7,12} <= 0
 st3_at_(7,_12)_route_1: y_{1,7,12} >= 0
 st1_at_(1,_8)_route_1: - 1000 x_{1,1,8} + y_{1,1,8} - b_{1} >= -1000
 st2_at_(1,_8)_route_1: - 999 x_{1,1,8} + y_{1,1,8} <= 0
 st3_at_(1,_8)_route_1: y_{1,1,8} >= 0
 st1_at_(8,_12)_route_1: - 1000 x_{1,8,12} + y_{1,8,12} - b_{1} >= -1000
 st2_at_(8,_12)_route_1: - 999 x_{1,8,12} + y_{1,8,12} <= 0
 st3_at_(8,_12)_route_1: y_{1,8,12} >= 0
 st1_at_(1,_9)_route_1: - 1000 x_{1,1,9} + y_{1,1,9} - b_{1} >= -1000
 st2_at_(1,_9)_route_1: - 970 x_{1,1,9} + y_{1,1,9} <= 0
 st3_at_(1,_9)_route_1: y_{1,1,9} >= 0
 st1_at_(9,_12)_route_1: - 1000 x_{1,9,12} + y_{1,9,12} - b_{1} >= -1000
 st2_at_(9,_12)_route_1: - 970 x_{1,9,12} + y_{1,9,12} <= 0
 st3_at_(9,_12)_route_1: y_{1,9,12} >= 0
 st1_at_(1,_10)_route_1: - 1000 x_{1,1,10} + y_{1,1,10} - b_{1} >= -1000
 st2_at_(1,_10)_route_1: - 1000 x_{1,1,10} + y_{1,1,10} <= 0
 st3_at_(1,_10)_route_1: y_{1,1,10} >= 0
 st1_at_(10,_12)_route_1: - 1000 x_{1,10,12} + y_{1,10,12} - b_{1}
   >= -1000
 st2_at_(10,_12)_route_1: - 1000 x_{1,10,12} + y_{1,10,12} <= 0
 st3_at_(10,_12)_route_1: y_{1,10,12} >= 0
 st1_at_(1,_11)_route_1: - 1000 x_{1,1,11} + y_{1,1,11} - b_{1} >= -1000
 st2_at_(1,_11)_route_1: - 1000 x_{1,1,11} + y_{1,1,11} <= 0
 st3_at_(1,_11)_route_1: y_{1,1,11} >= 0
 st1_at_(1,_2)_route_2: - 1000 x_{2,1,2} + y_{2,1,2} - b_{2} >= -1000
 st2_at_(1,_2)_route_2: - 1000 x_{2,1,2} + y_{2,1,2} <= 0
 st3_at_(1,_2)_route_2: y_{2,1,2} >= 0
 st1_at_(2,_12)_route_2: - 1000 x_{2,2,12} + y_{2,2,12} - b_{2} >= -1000
 st2_at_(2,_12)_route_2: - 1000 x_{2,2,12} + y_{2,2,12} <= 0
 st3_at_(2,_12)_route_2: y_{2,2,12} >= 0
 st1_at_(1,_3)_route_2: - 1000 x_{2,1,3} + y_{2,1,3} - b_{2} >= -1000
 st2_at_(1,_3)_route_2: - 1000 x_{2,1,3} + y_{2,1,3} <= 0
 st3_at_(1,_3)_route_2: y_{2,1,3} >= 0
 st1_at_(1,_4)_route_2: - 1000 x_{2,1,4} + y_{2,1,4} - b_{2} >= -1000
 st2_at_(1,_4)_route_2: - 1000 x_{2,1,4} + y_{2,1,4} <= 0
 st3_at_(1,_4)_route_2: y_{2,1,4} >= 0
 st1_at_(4,_12)_route_2: - 1000 x_{2,4,12} + y_{2,4,12} - b_{2} >= -1000
 st2_at_(4,_12)_route_2: - 1000 x_{2,4,12} + y_{2,4,12} <= 0
 st3_at_(4,_12)_route_2: y_{2,4,12} >= 0
 st1_at_(1,_5)_route_2: - 1000 x_{2,1,5} + y_{2,1,5} - b_{2} >= -1000
 st2_at_(1,_5)_route_2: - 986 x_{2,1,5} + y_{2,1,5} <= 0
 st3_at_(1,_5)_route_2: y_{2,1,5} >= 0
 st1_at_(5,_12)_route_2: - 1000 x_{2,5,12} + y_{2,5,12} - b_{2} >= -1000
 st2_at_(5,_12)_route_2: - 986 x_{2,5,12} + y_{2,5,12} <= 0
 st3_at_(5,_12)_route_2: y_{2,5,12} >= 0
 st1_at_(6,_12)_route_2: - 1000 x_{2,6,12} + y_{2,6,12} - b_{2} >= -1000
 st2_at_(6,_12)_route_2: - 1000 x_{2,6,12} + y_{2,6,12} <= 0
 st3_at_(6,_12)_route_2: y_{2,6,12} >= 0
 st1_at_(1,_7)_route_2: - 1000 x_{2,1,7} + y_{2,1,7} - b_{2} >= -1000
 st2_at_(1,_7)_route_2: - 922 x_{2,1,7} + y_{2,1,7} <= 0
 st3_at_(1,_7)_route_2: y_{2,1,7} >= 0
 st1_at_(7,_12)_route_2: - 1000 x_{2,7,12} + y_{2,7,12} - b_{2} >= -1000
 st2_at_(7,_12)_route_2: - 922 x_{2,7,12} + y_{2,7,12} <= 0
 st3_at_(7,_12)_route_2: y_{2,7,12} >= 0
 st1_at_(1,_8)_route_2: - 1000 x_{2,1,8} + y_{2,1,8} - b_{2} >= -1000
 st2_at_(1,_8)_route_2: - 999 x_{2,1,8} + y_{2,1,8} <= 0
 st3_at_(1,_8)_route_2: y_{2,1,8} >= 0
 st1_at_(8,_12)_route_2: - 1000 x_{2,8,12} + y_{2,8,12} - b_{2} >= -1000
 st2_at_(8,_12)_route_2: - 999 x_{2,8,12} + y_{2,8,12} <= 0
 st3_at_(8,_12)_route_2: y_{2,8,12} >= 0
 st1_at_(1,_9)_route_2: - 1000 x_{2,1,9} + y_{2,1,9} - b_{2} >= -1000
 st2_at_(1,_9)_route_2: - 970 x_{2,1,9} + y_{2,1,9} <= 0
 st3_at_(1,_9)_route_2: y_{2,1,9} >= 0
 st1_at_(9,_12)_route_2: - 1000 x_{2,9,12} + y_{2,9,12} - b_{2} >= -1000
 st2_at_(9,_12)_route_2: - 970 x_{2,9,12} + y_{2,9,12} <= 0
 st3_at_(9,_12)_route_2: y_{2,9,12} >= 0
 st1_at_(1,_10)_route_2: - 1000 x_{2,1,10} + y_{2,1,10} - b_{2} >= -1000
 st2_at_(1,_10)_route_2: - 1000 x_{2,1,10} + y_{2,1,10} <= 0
 st3_at_(1,_10)_route_2: y_{2,1,10} >= 0
 st1_at_(10,_12)_route_2: - 1000 x_{2,10,12} + y_{2,10,12} - b_{2}
   >= -1000
 st2_at_(10,_12)_route_2: - 1000 x_{2,10,12} + y_{2,10,12} <= 0
 st3_at_(10,_12)_route_2: y_{2,10,12} >= 0
 st1_at_(1,_11)_route_2: - 1000 x_{2,1,11} + y_{2,1,11} - b_{2} >= -1000
 st2_at_(1,_11)_route_2: - 1000 x_{2,1,11} + y_{2,1,11} <= 0
 st3_at_(1,_11)_route_2: y_{2,1,11} >= 0
 st1_at_(1,_2)_route_3: - 1000 x_{3,1,2} + y_{3,1,2} - b_{3} >= -1000
 st2_at_(1,_2)_route_3: - 1000 x_{3,1,2} + y_{3,1,2} <= 0
 st3_at_(1,_2)_route_3: y_{3,1,2} >= 0
 st1_at_(2,_12)_route_3: - 1000 x_{3,2,12} + y_{3,2,12} - b_{3} >= -1000
 st2_at_(2,_12)_route_3: - 1000 x_{3,2,12} + y_{3,2,12} <= 0
 st3_at_(2,_12)_route_3: y_{3,2,12} >= 0
 st1_at_(1,_3)_route_3: - 1000 x_{3,1,3} + y_{3,1,3} - b_{3} >= -1000
 st2_at_(1,_3)_route_3: - 1000 x_{3,1,3} + y_{3,1,3} <= 0
 st3_at_(1,_3)_route_3: y_{3,1,3} >= 0
 st1_at_(1,_4)_route_3: - 1000 x_{3,1,4} + y_{3,1,4} - b_{3} >= -1000
 st2_at_(1,_4)_route_3: - 1000 x_{3,1,4} + y_{3,1,4} <= 0
 st3_at_(1,_4)_route_3: y_{3,1,4} >= 0
 st1_at_(4,_12)_route_3: - 1000 x_{3,4,12} + y_{3,4,12} - b_{3} >= -1000
 st2_at_(4,_12)_route_3: - 1000 x_{3,4,12} + y_{3,4,12} <= 0
 st3_at_(4,_12)_route_3: y_{3,4,12} >= 0
 st1_at_(1,_5)_route_3: - 1000 x_{3,1,5} + y_{3,1,5} - b_{3} >= -1000
 st2_at_(1,_5)_route_3: - 986 x_{3,1,5} + y_{3,1,5} <= 0
 st3_at_(1,_5)_route_3: y_{3,1,5} >= 0
 st1_at_(5,_12)_route_3: - 1000 x_{3,5,12} + y_{3,5,12} - b_{3} >= -1000
 st2_at_(5,_12)_route_3: - 986 x_{3,5,12} + y_{3,5,12} <= 0
 st3_at_(5,_12)_route_3: y_{3,5,12} >= 0
 st1_at_(6,_12)_route_3: - 1000 x_{3,6,12} + y_{3,6,12} - b_{3} >= -1000
 st2_at_(6,_12)_route_3: - 1000 x_{3,6,12} + y_{3,6,12} <= 0
 st3_at_(6,_12)_route_3: y_{3,6,12} >= 0
 st1_at_(1,_7)_route_3: - 1000 x_{3,1,7} + y_{3,1,7} - b_{3} >= -1000
 st2_at_(1,_7)_route_3: - 922 x_{3,1,7} + y_{3,1,7} <= 0
 st3_at_(1,_7)_route_3: y_{3,1,7} >= 0
 st1_at_(7,_12)_route_3: - 1000 x_{3,7,12} + y_{3,7,12} - b_{3} >= -1000
 st2_at_(7,_12)_route_3: - 922 x_{3,7,12} + y_{3,7,12} <= 0
 st3_at_(7,_12)_route_3: y_{3,7,12} >= 0
 st1_at_(1,_8)_route_3: - 1000 x_{3,1,8} + y_{3,1,8} - b_{3} >= -1000
 st2_at_(1,_8)_route_3: - 999 x_{3,1,8} + y_{3,1,8} <= 0
 st3_at_(1,_8)_route_3: y_{3,1,8} >= 0
 st1_at_(8,_12)_route_3: - 1000 x_{3,8,12} + y_{3,8,12} - b_{3} >= -1000
 st2_at_(8,_12)_route_3: - 999 x_{3,8,12} + y_{3,8,12} <= 0
 st3_at_(8,_12)_route_3: y_{3,8,12} >= 0
 st1_at_(1,_9)_route_3: - 1000 x_{3,1,9} + y_{3,1,9} - b_{3} >= -1000
 st2_at_(1,_9)_route_3: - 970 x_{3,1,9} + y_{3,1,9} <= 0
 st3_at_(1,_9)_route_3: y_{3,1,9} >= 0
 st1_at_(9,_12)_route_3: - 1000 x_{3,9,12} + y_{3,9,12} - b_{3} >= -1000
 st2_at_(9,_12)_route_3: - 970 x_{3,9,12} + y_{3,9,12} <= 0
 st3_at_(9,_12)_route_3: y_{3,9,12} >= 0
 st1_at_(1,_10)_route_3: - 1000 x_{3,1,10} + y_{3,1,10} - b_{3} >= -1000
 st2_at_(1,_10)_route_3: - 1000 x_{3,1,10} + y_{3,1,10} <= 0
 st3_at_(1,_10)_route_3: y_{3,1,10} >= 0
 st1_at_(10,_12)_route_3: - 1000 x_{3,10,12} + y_{3,10,12} - b_{3}
   >= -1000
 st2_at_(10,_12)_route_3: - 1000 x_{3,10,12} + y_{3,10,12} <= 0
 st3_at_(10,_12)_route_3: y_{3,10,12} >= 0
 st1_at_(1,_11)_route_3: - 1000 x_{3,1,11} + y_{3,1,11} - b_{3} >= -1000
 st2_at_(1,_11)_route_3: - 1000 x_{3,1,11} + y_{3,1,11} <= 0
 st3_at_(1,_11)_route_3: y_{3,1,11} >= 0
 st1_at_(1,_2)_route_4: - 1000 x_{4,1,2} + y_{4,1,2} - b_{4} >= -1000
 st2_at_(1,_2)_route_4: - 1000 x_{4,1,2} + y_{4,1,2} <= 0
 st3_at_(1,_2)_route_4: y_{4,1,2} >= 0
 st1_at_(2,_12)_route_4: - 1000 x_{4,2,12} + y_{4,2,12} - b_{4} >= -1000
 st2_at_(2,_12)_route_4: - 1000 x_{4,2,12} + y_{4,2,12} <= 0
 st3_at_(2,_12)_route_4: y_{4,2,12} >= 0
 st1_at_(1,_3)_route_4: - 1000 x_{4,1,3} + y_{4,1,3} - b_{4} >= -1000
 st2_at_(1,_3)_route_4: - 1000 x_{4,1,3} + y_{4,1,3} <= 0
 st3_at_(1,_3)_route_4: y_{4,1,3} >= 0
 st1_at_(1,_4)_route_4: - 1000 x_{4,1,4} + y_{4,1,4} - b_{4} >= -1000
 st2_at_(1,_4)_route_4: - 1000 x_{4,1,4} + y_{4,1,4} <= 0
 st3_at_(1,_4)_route_4: y_{4,1,4} >= 0
 st1_at_(4,_12)_route_4: - 1000 x_{4,4,12} + y_{4,4,12} - b_{4} >= -1000
 st2_at_(4,_12)_route_4: - 1000 x_{4,4,12} + y_{4,4,12} <= 0
 st3_at_(4,_12)_route_4: y_{4,4,12} >= 0
 st1_at_(1,_5)_route_4: - 1000 x_{4,1,5} + y_{4,1,5} - b_{4} >= -1000
 st2_at_(1,_5)_route_4: - 986 x_{4,1,5} + y_{4,1,5} <= 0
 st3_at_(1,_5)_route_4: y_{4,1,5} >= 0
 st1_at_(5,_12)_route_4: - 1000 x_{4,5,12} + y_{4,5,12} - b_{4} >= -1000
 st2_at_(5,_12)_route_4: - 986 x_{4,5,12} + y_{4,5,12} <= 0
 st3_at_(5,_12)_route_4: y_{4,5,12} >= 0
 st1_at_(6,_12)_route_4: - 1000 x_{4,6,12} + y_{4,6,12} - b_{4} >= -1000
 st2_at_(6,_12)_route_4: - 1000 x_{4,6,12} + y_{4,6,12} <= 0
 st3_at_(6,_12)_route_4: y_{4,6,12} >= 0
 st1_at_(1,_7)_route_4: - 1000 x_{4,1,7} + y_{4,1,7} - b_{4} >= -1000
 st2_at_(1,_7)_route_4: - 922 x_{4,1,7} + y_{4,1,7} <= 0
 st3_at_(1,_7)_route_4: y_{4,1,7} >= 0
 st1_at_(7,_12)_route_4: - 1000 x_{4,7,12} + y_{4,7,12} - b_{4} >= -1000
 st2_at_(7,_12)_route_4: - 922 x_{4,7,12} + y_{4,7,12} <= 0
 st3_at_(7,_12)_route_4: y_{4,7,12} >= 0
 st1_at_(1,_8)_route_4: - 1000 x_{4,1,8} + y_{4,1,8} - b_{4} >= -1000
 st2_at_(1,_8)_route_4: - 999 x_{4,1,8} + y_{4,1,8} <= 0
 st3_at_(1,_8)_route_4: y_{4,1,8} >= 0
 st1_at_(8,_12)_route_4: - 1000 x_{4,8,12} + y_{4,8,12} - b_{4} >= -1000
 st2_at_(8,_12)_route_4: - 999 x_{4,8,12} + y_{4,8,12} <= 0
 st3_at_(8,_12)_route_4: y_{4,8,12} >= 0
 st1_at_(1,_9)_route_4: - 1000 x_{4,1,9} + y_{4,1,9} - b_{4} >= -1000
 st2_at_(1,_9)_route_4: - 970 x_{4,1,9} + y_{4,1,9} <= 0
 st3_at_(1,_9)_route_4: y_{4,1,9} >= 0
 st1_at_(9,_12)_route_4: - 1000 x_{4,9,12} + y_{4,9,12} - b_{4} >= -1000
 st2_at_(9,_12)_route_4: - 970 x_{4,9,12} + y_{4,9,12} <= 0
 st3_at_(9,_12)_route_4: y_{4,9,12} >= 0
 st1_at_(1,_10)_route_4: - 1000 x_{4,1,10} + y_{4,1,10} - b_{4} >= -1000
 st2_at_(1,_10)_route_4: - 1000 x_{4,1,10} + y_{4,1,10} <= 0
 st3_at_(1,_10)_route_4: y_{4,1,10} >= 0
 st1_at_(10,_12)_route_4: - 1000 x_{4,10,12} + y_{4,10,12} - b_{4}
   >= -1000
 st2_at_(10,_12)_route_4: - 1000 x_{4,10,12} + y_{4,10,12} <= 0
 st3_at_(10,_12)_route_4: y_{4,10,12} >= 0
 st1_at_(1,_11)_route_4: - 1000 x_{4,1,11} + y_{4,1,11} - b_{4} >= -1000
 st2_at_(1,_11)_route_4: - 1000 x_{4,1,11} + y_{4,1,11} <= 0
 st3_at_(1,_11)_route_4: y_{4,1,11} >= 0
 st1_at_(1,_2)_route_5: - 1000 x_{5,1,2} + y_{5,1,2} - b_{5} >= -1000
 st2_at_(1,_2)_route_5: - 1000 x_{5,1,2} + y_{5,1,2} <= 0
 st3_at_(1,_2)_route_5: y_{5,1,2} >= 0
 st1_at_(2,_12)_route_5: - 1000 x_{5,2,12} + y_{5,2,12} - b_{5} >= -1000
 st2_at_(2,_12)_route_5: - 1000 x_{5,2,12} + y_{5,2,12} <= 0
 st3_at_(2,_12)_route_5: y_{5,2,12} >= 0
 st1_at_(1,_3)_route_5: - 1000 x_{5,1,3} + y_{5,1,3} - b_{5} >= -1000
 st2_at_(1,_3)_route_5: - 1000 x_{5,1,3} + y_{5,1,3} <= 0
 st3_at_(1,_3)_route_5: y_{5,1,3} >= 0
 st1_at_(1,_4)_route_5: - 1000 x_{5,1,4} + y_{5,1,4} - b_{5} >= -1000
 st2_at_(1,_4)_route_5: - 1000 x_{5,1,4} + y_{5,1,4} <= 0
 st3_at_(1,_4)_route_5: y_{5,1,4} >= 0
 st1_at_(4,_12)_route_5: - 1000 x_{5,4,12} + y_{5,4,12} - b_{5} >= -1000
 st2_at_(4,_12)_route_5: - 1000 x_{5,4,12} + y_{5,4,12} <= 0
 st3_at_(4,_12)_route_5: y_{5,4,12} >= 0
 st1_at_(1,_5)_route_5: - 1000 x_{5,1,5} + y_{5,1,5} - b_{5} >= -1000
 st2_at_(1,_5)_route_5: - 986 x_{5,1,5} + y_{5,1,5} <= 0
 st3_at_(1,_5)_route_5: y_{5,1,5} >= 0
 st1_at_(5,_12)_route_5: - 1000 x_{5,5,12} + y_{5,5,12} - b_{5} >= -1000
 st2_at_(5,_12)_route_5: - 986 x_{5,5,12} + y_{5,5,12} <= 0
 st3_at_(5,_12)_route_5: y_{5,5,12} >= 0
 st1_at_(6,_12)_route_5: - 1000 x_{5,6,12} + y_{5,6,12} - b_{5} >= -1000
 st2_at_(6,_12)_route_5: - 1000 x_{5,6,12} + y_{5,6,12} <= 0
 st3_at_(6,_12)_route_5: y_{5,6,12} >= 0
 st1_at_(1,_7)_route_5: - 1000 x_{5,1,7} + y_{5,1,7} - b_{5} >= -1000
 st2_at_(1,_7)_route_5: - 922 x_{5,1,7} + y_{5,1,7} <= 0
 st3_at_(1,_7)_route_5: y_{5,1,7} >= 0
 st1_at_(7,_12)_route_5: - 1000 x_{5,7,12} + y_{5,7,12} - b_{5} >= -1000
 st2_at_(7,_12)_route_5: - 922 x_{5,7,12} + y_{5,7,12} <= 0
 st3_at_(7,_12)_route_5: y_{5,7,12} >= 0
 st1_at_(1,_8)_route_5: - 1000 x_{5,1,8} + y_{5,1,8} - b_{5} >= -1000
 st2_at_(1,_8)_route_5: - 999 x_{5,1,8} + y_{5,1,8} <= 0
 st3_at_(1,_8)_route_5: y_{5,1,8} >= 0
 st1_at_(8,_12)_route_5: - 1000 x_{5,8,12} + y_{5,8,12} - b_{5} >= -1000
 st2_at_(8,_12)_route_5: - 999 x_{5,8,12} + y_{5,8,12} <= 0
 st3_at_(8,_12)_route_5: y_{5,8,12} >= 0
 st1_at_(1,_9)_route_5: - 1000 x_{5,1,9} + y_{5,1,9} - b_{5} >= -1000
 st2_at_(1,_9)_route_5: - 970 x_{5,1,9} + y_{5,1,9} <= 0
 st3_at_(1,_9)_route_5: y_{5,1,9} >= 0
 st1_at_(9,_12)_route_5: - 1000 x_{5,9,12} + y_{5,9,12} - b_{5} >= -1000
 st2_at_(9,_12)_route_5: - 970 x_{5,9,12} + y_{5,9,12} <= 0
 st3_at_(9,_12)_route_5: y_{5,9,12} >= 0
 st1_at_(1,_10)_route_5: - 1000 x_{5,1,10} + y_{5,1,10} - b_{5} >= -1000
 st2_at_(1,_10)_route_5: - 1000 x_{5,1,10} + y_{5,1,10} <= 0
 st3_at_(1,_10)_route_5: y_{5,1,10} >= 0
 st1_at_(10,_12)_route_5: - 1000 x_{5,10,12} + y_{5,10,12} - b_{5}
   >= -1000
 st2_at_(10,_12)_route_5: - 1000 x_{5,10,12} + y_{5,10,12} <= 0
 st3_at_(10,_12)_route_5: y_{5,10,12} >= 0
 st1_at_(1,_11)_route_5: - 1000 x_{5,1,11} + y_{5,1,11} - b_{5} >= -1000
 st2_at_(1,_11)_route_5: - 1000 x_{5,1,11} + y_{5,1,11} <= 0
 st3_at_(1,_11)_route_5: y_{5,1,11} >= 0
Bounds
Binaries
 x_{1,1,2} x_{2,1,2} x_{3,1,2} x_{4,1,2} x_{5,1,2} x_{1,2,12} x_{2,2,12}
 x_{3,2,12} x_{4,2,12} x_{5,2,12} x_{1,1,3} x_{2,1,3} x_{3,1,3} x_{4,1,3}
 x_{5,1,3} x_{1,1,4} x_{2,1,4} x_{3,1,4} x_{4,1,4} x_{5,1,4} x_{1,4,12}
 x_{2,4,12} x_{3,4,12} x_{4,4,12} x_{5,4,12} x_{1,1,5} x_{2,1,5} x_{3,1,5}
 x_{4,1,5} x_{5,1,5} x_{1,5,12} x_{2,5,12} x_{3,5,12} x_{4,5,12} x_{5,5,12}
 x_{1,6,12} x_{2,6,12} x_{3,6,12} x_{4,6,12} x_{5,6,12} x_{1,1,7} x_{2,1,7}
 x_{3,1,7} x_{4,1,7} x_{5,1,7} x_{1,7,12} x_{2,7,12} x_{3,7,12} x_{4,7,12}
 x_{5,7,12} x_{1,1,8} x_{2,1,8} x_{3,1,8} x_{4,1,8} x_{5,1,8} x_{1,8,12}
 x_{2,8,12} x_{3,8,12} x_{4,8,12} x_{5,8,12} x_{1,1,9} x_{2,1,9} x_{3,1,9}
 x_{4,1,9} x_{5,1,9} x_{1,9,12} x_{2,9,12} x_{3,9,12} x_{4,9,12} x_{5,9,12}
 x_{1,1,10} x_{2,1,10} x_{3,1,10} x_{4,1,10} x_{5,1,10} x_{1,10,12}
 x_{2,10,12} x_{3,10,12} x_{4,10,12} x_{5,10,12} x_{1,1,11} x_{2,1,11}
 x_{3,1,11} x_{4,1,11} x_{5,1,11}
Generals
 y_{1,1,2} y_{2,1,2} y_{3,1,2} y_{4,1,2} y_{5,1,2} y_{1,2,12} y_{2,2,12}
 y_{3,2,12} y_{4,2,12} y_{5,2,12} y_{1,1,3} y_{2,1,3} y_{3,1,3} y_{4,1,3}
 y_{5,1,3} y_{1,1,4} y_{2,1,4} y_{3,1,4} y_{4,1,4} y_{5,1,4} y_{1,4,12}
 y_{2,4,12} y_{3,4,12} y_{4,4,12} y_{5,4,12} y_{1,1,5} y_{2,1,5} y_{3,1,5}
 y_{4,1,5} y_{5,1,5} y_{1,5,12} y_{2,5,12} y_{3,5,12} y_{4,5,12} y_{5,5,12}
 y_{1,6,12} y_{2,6,12} y_{3,6,12} y_{4,6,12} y_{5,6,12} y_{1,1,7} y_{2,1,7}
 y_{3,1,7} y_{4,1,7} y_{5,1,7} y_{1,7,12} y_{2,7,12} y_{3,7,12} y_{4,7,12}
 y_{5,7,12} y_{1,1,8} y_{2,1,8} y_{3,1,8} y_{4,1,8} y_{5,1,8} y_{1,8,12}
 y_{2,8,12} y_{3,8,12} y_{4,8,12} y_{5,8,12} y_{1,1,9} y_{2,1,9} y_{3,1,9}
 y_{4,1,9} y_{5,1,9} y_{1,9,12} y_{2,9,12} y_{3,9,12} y_{4,9,12} y_{5,9,12}
 y_{1,1,10} y_{2,1,10} y_{3,1,10} y_{4,1,10} y_{5,1,10} y_{1,10,12}
 y_{2,10,12} y_{3,10,12} y_{4,10,12} y_{5,10,12} y_{1,1,11} y_{2,1,11}
 y_{3,1,11} y_{4,1,11} y_{5,1,11} b_{1} b_{2} b_{3} b_{4} b_{5}
End
